problems/csplib-prob056/sonet-models/noch/O2/lingeling/model_8_1-s3ring15-solution000001.solution
language Essence 1.3

letting network be mset({}, {}, {1, 2, 9, 11, 13}, {2, 3, 5, 6, 10}, {4, 5, 7, 11}, {4, 8, 10, 12, 13}, {7, 9, 10, 12})
$ Here is a simple "visualisation" for the value above.
$ 
$ 
$  1  2  9 11 13
$  2  3  5  6 10
$  4  5  7 11
$  4  8 10 12 13
$  7  9 10 12

